output ["% lb(lambda) = ",show(lb_lambda),";\n","objective = ",show(objective),";\n","m = array2d(",show(rows),", ",show(cols),", ",show(m),");\n"];
set of int: rows = 1..11;
set of int: cols = 1..22;
int: lb_lambda = 4;
array [rows,cols] of int: m;
int: objective;
